unsat
(define-fun f ((x0 (BitVec 64)) (x1 (BitVec 64))) (BitVec 64) (bvadd #b0000000000000000000000000000000000000000000000000000000000001110 (bvmul x0 #b0000000000000000000000000000000000000000000000000000000000001000)))
(define-fun f ((x0 (BitVec 64)) (x1 (BitVec 64))) (BitVec 64) (bvadd #b0000000000000000000000000000000000000000000000000000000000001110 (bvmul x0 #b0000000000000000000000000000000000000000000000000000000000001000)))
int-arith32.sl running time : 1 m 34.021095702 s
times : 94.021095702
